c This Formular is generated by mcnf
c
c    horn? no 
c    forced? no 
c    mixed sat? no 
c    clause length = 3 
c
p cnf 20  91 
 7 20 8 0
-14 10 16 0
-12 1 -14 0
-5 -6 11 0
13 -8 9 0
7 19 -16 0
2 -16 -12 0
12 -20 18 0
-4 18 11 0
18 1 -12 0
15 -8 -10 0
-6 -18 11 0
-16 -9 10 0
18 17 20 0
-13 8 -5 0
-8 -16 6 0
4 8 13 0
17 14 -12 0
-7 -4 -13 0
-9 -1 -8 0
-9 -2 12 0
15 3 -11 0
-9 20 -10 0
13 -16 -20 0
-6 -20 14 0
9 -1 10 0
-3 -9 -12 0
-8 4 15 0
-14 17 -20 0
7 11 20 0
9 -5 17 0
12 7 -17 0
12 6 -7 0
-3 5 10 0
2 -14 -12 0
9 -3 -20 0
10 4 5 0
19 20 13 0
16 11 -6 0
6 -9 -18 0
18 -2 -13 0
%
0

54 91 62 78 8 97 32 88 39 30 83 72 86 63 41 36 27 27 52 48
